NAME : graph22
COMMENT : H Algorithm Solution by Oscar Riveros [http://twitter.com/maxtuno]
TYPE : TOUR
DIMENSION : 186
TOUR_SECTION
32
74
168
151
141
62
120
95
38
40
65
34
166
160
64
4
76
89
173
98
110
130
26
91
107
159
180
37
35
33
155
175
11
181
45
66
169
157
79
81
102
137
75
21
163
117
14
138
149
121
82
19
96
118
8
87
31
55
9
125
57
135
161
134
1
56
10
144
27
49
12
24
186
165
29
22
140
139
167
162
50
143
16
69
43
47
36
146
84
70
113
30
42
115
3
44
94
59
153
39
112
156
15
67
128
116
103
78
172
179
119
154
148
52
111
182
142
18
183
152
60
100
58
97
28
124
41
54
86
23
92
2
132
53
122
7
174
17
88
72
101
20
164
63
99
123
131
129
171
106
77
13
170
108
104
46
105
93
114
51
185
73
83
48
177
5
158
145
147
109
85
127
133
68
90
126
176
136
150
61
71
178
6
184
80
25
-1
EOF
